NAME: tsp35_24
COMMENT: 35-tsp problem (Padberg/Rinaldi)
TYPE: TSP
DIMENSION: 35
EDGE_WEIGHT_TYPE : EUC_2D
NODE_COORD_SECTION
1 2 14
2 4 37
3 9 21
4 18 15
5 15 31
6 32 5
7 22 40
8 9 40
9 1 7
10 33 16
11 10 26
12 33 0
13 14 3
14 12 27
15 8 9
16 11 29
17 29 31
18 4 9
19 28 21
20 16 14
21 16 33
22 38 21
23 25 27
24 19 24
25 5 26
26 4 18
27 22 30
28 13 33
29 34 7
30 23 16
31 8 14
32 5 31
33 39 19
34 26 29
35 12 27
